$https://teachinglondoncomputing.org/cut-hive-puzzles/

language ESSENCE' 1.0

letting height be 6
letting length be 6
letting numblocks be 7
letting blocks be 
[
    [0,0,0,0,0,1],
    [0,0,0,2,1,0],
    [0,3,3,2,0,0],
    [3,4,4,5,6,0],
    [0,0,4,5,0,0],
    [0,0,0,0,5,7]
]
letting fixed be
[
    [0,0,0,0,0,0],
    [0,0,0,0,0,0],
    [0,0,0,0,0,0],
    [0,0,0,0,0,0],
    [0,0,0,0,0,0],
    [0,0,0,0,0,0],
]